
Gurobi 9.5.0 (linux64) logging started Sat Nov  4 11:37:39 2023

Set parameter LogFile to value "/lustre1/scratch/348/vsc34888/JointResearch/05.Models/06.Benchmarking/E.Representative_days_based_on_Line_Benefits_OptModel/RTS24_ByStages_nc10/openStarNet_RTS24_ByStages_nc10.log"
Set parameter Method to value 2
Set parameter MIPFocus to value 1
Set parameter Presolve to value 2
Set parameter RINS to value 100
Set parameter MIPGap to value 0.01
Set parameter Threads to value 36
Set parameter TimeLimit to value 604800
Set parameter IterationLimit to value 760000000
Gurobi Optimizer version 9.5.0 build v9.5.0rc5 (linux64)
Thread count: 36 physical cores, 36 logical processors, using up to 36 threads
Optimize a model with 4453 rows, 2591 columns and 12234 nonzeros
Model fingerprint: 0x99f65208
Variable types: 2552 continuous, 39 integer (39 binary)
Coefficient statistics:
  Matrix range     [3e-02, 3e+03]
  Objective range  [1e+00, 1e+00]
  Bounds range     [4e-04, 3e+00]
  RHS range        [4e-04, 3e+00]
Presolve removed 2173 rows and 1093 columns
Presolve time: 0.01s
Presolved: 2280 rows, 1498 columns, 7929 nonzeros
Variable types: 1459 continuous, 39 integer (39 binary)
Found heuristic solution: objective 138.4243848
Root relaxation presolved: 2280 rows, 1498 columns, 7929 nonzeros

Root barrier log...

Ordering time: 0.03s

Barrier statistics:
 AA' NZ     : 4.339e+04
 Factor NZ  : 3.361e+05 (roughly 4 MB of memory)
 Factor Ops : 7.237e+07 (less than 1 second per iteration)
 Threads    : 36

                  Objective                Residual
Iter       Primal          Dual         Primal    Dual     Compl     Time
   0   6.02007886e+05 -2.96149406e+07  4.50e+00 6.81e+02  1.84e+04     0s
   1   5.86430619e+04 -8.03258297e+06  4.29e-01 5.03e-11  2.38e+03     0s
   2   7.41869167e+03 -7.55956763e+05  4.41e-03 3.36e-11  1.64e+02     0s
   3   3.98153721e+03 -5.01712106e+04  5.31e-13 7.22e-12  1.15e+01     0s
   4   5.99532037e+02 -4.42104896e+03  3.26e-13 5.46e-12  1.07e+00     0s
   5   3.40046173e+02 -1.62974860e+03  3.44e-13 3.64e-12  4.19e-01     0s
   6   1.96581096e+02 -4.21548476e+02  2.98e-13 3.64e-12  1.32e-01     0s
   7   1.37766663e+02 -1.19206919e+02  3.06e-13 3.64e-12  5.47e-02     0s
   8   9.45387846e+01  3.47896253e+01  5.99e-13 3.64e-12  1.27e-02     0s
   9   8.15571674e+01  6.04839717e+01  2.55e-13 3.64e-12  4.49e-03     0s
  10   7.77418012e+01  7.22617472e+01  7.25e-13 1.82e-12  1.17e-03     0s
  11   7.55096344e+01  7.39659687e+01  4.57e-13 3.64e-12  3.29e-04     0s
  12   7.50215550e+01  7.41348843e+01  5.42e-11 3.64e-12  1.89e-04     0s
  13   7.47335231e+01  7.42769283e+01  1.69e-10 3.64e-12  9.72e-05     0s
  14   7.43136466e+01  7.42993375e+01  1.96e-10 3.64e-12  3.05e-06     0s
  15   7.43040047e+01  7.43036696e+01  2.46e-09 3.64e-12  7.14e-08     0s
  16   7.43037144e+01  7.43037132e+01  1.76e-11 3.64e-12  2.61e-10     0s
  17   7.43037141e+01  7.43037141e+01  5.35e-10 1.82e-12  2.61e-13     0s

Barrier solved model in 17 iterations and 0.32 seconds (0.08 work units)
Optimal objective 7.43037141e+01


Root relaxation: objective 7.430371e+01, 172 iterations, 0.29 seconds (0.05 work units)

    Nodes    |    Current Node    |     Objective Bounds      |     Work
 Expl Unexpl |  Obj  Depth IntInf | Incumbent    BestBd   Gap | It/Node Time

     0     0   74.30371    0   11  138.42438   74.30371  46.3%     -    0s
H    0     0                      89.4607677   74.30371  16.9%     -    0s
     0     0   79.76026    0    9   89.46077   79.76026  10.8%     -    0s
H    0     0                      89.3069037   80.33452  10.0%     -    0s
     0     0   80.33452    0    8   89.30690   80.33452  10.0%     -    0s
     0     0   81.03386    0   10   89.30690   81.03386  9.26%     -    0s
     0     0   81.08233    0   12   89.30690   81.08233  9.21%     -    0s
     0     0   81.10333    0   12   89.30690   81.10333  9.19%     -    0s
     0     0   81.10333    0   12   89.30690   81.10333  9.19%     -    0s
     0     0   81.23924    0   11   89.30690   81.23924  9.03%     -    0s
     0     0   81.33138    0   10   89.30690   81.33138  8.93%     -    0s
     0     0   81.67606    0   10   89.30690   81.67606  8.54%     -    0s
H    0     0                      87.1714107   81.67606  6.30%     -    0s
     0     2   81.67606    0   10   87.17141   81.67606  6.30%     -    0s

Cutting planes:
  Gomory: 9
  MIR: 62

Explored 190 nodes (3823 simplex iterations) in 1.25 seconds (0.87 work units)
Thread count was 36 (of 36 available processors)

Solution count 4: 87.1714 89.3069 89.4608 138.424 

Optimal solution found (tolerance 1.00e-02)
Best objective 8.717141065537e+01, best bound 8.717141065537e+01, gap 0.0000%

Gurobi 9.5.0 (linux64) logging started Sat Nov  4 11:37:40 2023

Set parameter LogFile to value "/lustre1/scratch/348/vsc34888/JointResearch/05.Models/06.Benchmarking/E.Representative_days_based_on_Line_Benefits_OptModel/RTS24_ByStages_nc10/openStarNet_RTS24_ByStages_nc10.log"
Set parameter Method to value 2
Set parameter MIPFocus to value 1
Set parameter Presolve to value 2
Set parameter RINS to value 100
Set parameter MIPGap to value 0.01
Set parameter Threads to value 36
Set parameter TimeLimit to value 604800
Set parameter IterationLimit to value 760000000
No parameters matching 'relax_integrality' found
Gurobi Optimizer version 9.5.0 build v9.5.0rc5 (linux64)
Thread count: 36 physical cores, 36 logical processors, using up to 36 threads
Optimize a model with 4453 rows, 2552 columns and 10635 nonzeros
Model fingerprint: 0xd052106b
Coefficient statistics:
  Matrix range     [3e-02, 3e+03]
  Objective range  [1e+00, 1e+00]
  Bounds range     [4e-04, 3e+00]
  RHS range        [4e-04, 3e+01]
Presolve removed 3513 rows and 1183 columns
Presolve time: 0.00s
Presolved: 940 rows, 1389 columns, 3469 nonzeros

Ordering time: 0.00s

Barrier statistics:
 AA' NZ     : 2.430e+03
 Factor NZ  : 1.022e+04 (roughly 1 MB of memory)
 Factor Ops : 1.546e+05 (less than 1 second per iteration)
 Threads    : 1

                  Objective                Residual
Iter       Primal          Dual         Primal    Dual     Compl     Time
   0   1.29899831e+06 -1.85890207e+08  4.85e+00 1.43e+03  1.62e+05     0s
   1   1.40852904e+05 -2.86777121e+07  5.01e-01 1.23e-10  1.72e+04     0s
   2   4.84783402e+04 -2.76557485e+06  1.22e-01 1.09e-10  1.54e+03     0s
   3   2.16810917e+04 -3.67046009e+05  1.89e-03 8.73e-11  1.65e+02     0s
   4   9.21522837e+03 -3.31529195e+04  1.68e-12 2.33e-11  1.78e+01     0s
   5   1.12737397e+03 -4.64829634e+03  4.99e-13 1.46e-11  2.43e+00     0s
   6   2.87970537e+02 -5.51173487e+02  2.39e-13 1.46e-11  3.53e-01     0s
   7   1.99897218e+02 -7.66288398e+01  3.56e-13 1.46e-11  1.16e-01     0s
   8   1.18589023e+02  2.01544971e+01  1.96e-13 1.46e-11  4.14e-02     0s
   9   9.34462141e+01  7.69993386e+01  3.49e-12 1.46e-11  6.92e-03     0s
  10   8.74307926e+01  8.45989443e+01  8.98e-13 2.91e-11  1.19e-03     0s
  11   8.71998248e+01  8.70754601e+01  1.44e-12 1.46e-11  5.23e-05     0s
  12   8.71714138e+01  8.71714082e+01  1.46e-12 2.91e-11  2.37e-09     0s
  13   8.71714107e+01  8.71714107e+01  6.86e-12 2.91e-11  2.37e-12     0s

Barrier solved model in 13 iterations and 0.02 seconds (0.01 work units)
Optimal objective 8.71714107e+01

Crossover log...

     119 DPushes remaining with DInf 0.0000000e+00                 0s
       0 DPushes remaining with DInf 0.0000000e+00                 0s

      47 PPushes remaining with PInf 0.0000000e+00                 0s
       0 PPushes remaining with PInf 0.0000000e+00                 0s

  Push phase complete: Pinf 0.0000000e+00, Dinf 1.6936491e-12      0s

Iteration    Objective       Primal Inf.    Dual Inf.      Time
      53    8.7171411e+01   0.000000e+00   0.000000e+00      0s

Use crossover to convert LP symmetric solution to basic solution...
Crossover log...

       0 DPushes remaining with DInf 0.0000000e+00                 0s

      24 PPushes remaining with PInf 0.0000000e+00                 0s
       0 PPushes remaining with PInf 0.0000000e+00                 0s

  Push phase complete: Pinf 0.0000000e+00, Dinf 2.1076078e-12      0s

Iteration    Objective       Primal Inf.    Dual Inf.      Time
      81    8.7171411e+01   0.000000e+00   0.000000e+00      0s

Solved in 81 iterations and 0.02 seconds (0.02 work units)
Optimal objective  8.717141066e+01

Gurobi 9.5.0 (linux64) logging started Sat Nov  4 12:06:39 2023

Set parameter LogFile to value "/lustre1/scratch/348/vsc34888/JointResearch/05.Models/06.Benchmarking/E.Representative_days_based_on_Line_Benefits_OptModel/RTS24_ByStages_nc10/openStarNet_RTS24_ByStages_nc10.log"
Set parameter Method to value 2
Set parameter MIPFocus to value 1
Set parameter Presolve to value 2
Set parameter RINS to value 100
Set parameter MIPGap to value 0.01
Set parameter Threads to value 36
Set parameter TimeLimit to value 604800
Set parameter IterationLimit to value 760000000
Gurobi Optimizer version 9.5.0 build v9.5.0rc5 (linux64)
Thread count: 36 physical cores, 36 logical processors, using up to 36 threads
Optimize a model with 4453 rows, 2591 columns and 12234 nonzeros
Model fingerprint: 0x0b911e32
Variable types: 2552 continuous, 39 integer (39 binary)
Coefficient statistics:
  Matrix range     [3e-02, 3e+03]
  Objective range  [1e+00, 1e+00]
  Bounds range     [4e-04, 3e+00]
  RHS range        [4e-04, 3e+00]
Presolve removed 2173 rows and 1093 columns
Presolve time: 0.01s
Presolved: 2280 rows, 1498 columns, 7929 nonzeros
Variable types: 1459 continuous, 39 integer (39 binary)
Found heuristic solution: objective 138.4243848
Root relaxation presolved: 2280 rows, 1498 columns, 7929 nonzeros

Root barrier log...

Ordering time: 0.03s

Barrier statistics:
 AA' NZ     : 4.339e+04
 Factor NZ  : 3.437e+05 (roughly 4 MB of memory)
 Factor Ops : 7.352e+07 (less than 1 second per iteration)
 Threads    : 36

                  Objective                Residual
Iter       Primal          Dual         Primal    Dual     Compl     Time
   0   6.02007886e+05 -2.96149406e+07  4.50e+00 6.81e+02  1.84e+04     0s
   1   5.86430619e+04 -8.03258297e+06  4.29e-01 5.15e-11  2.38e+03     0s
   2   7.41869167e+03 -7.55956763e+05  4.41e-03 6.91e-11  1.64e+02     0s
   3   3.98153721e+03 -5.01712106e+04  7.19e-13 5.46e-12  1.15e+01     0s
   4   5.99532037e+02 -4.42104896e+03  5.36e-13 1.82e-12  1.07e+00     0s
   5   3.40046173e+02 -1.62974860e+03  2.31e-13 3.64e-12  4.19e-01     0s
   6   1.96581096e+02 -4.21548476e+02  2.83e-13 3.64e-12  1.32e-01     0s
   7   1.37766663e+02 -1.19206919e+02  2.84e-13 3.64e-12  5.47e-02     0s
   8   9.45387846e+01  3.47896253e+01  2.60e-13 3.64e-12  1.27e-02     0s
   9   8.15571674e+01  6.04839717e+01  9.10e-13 3.64e-12  4.49e-03     0s
  10   7.77418012e+01  7.22617472e+01  5.06e-13 5.46e-12  1.17e-03     0s
  11   7.55096344e+01  7.39659687e+01  3.69e-13 1.82e-12  3.29e-04     0s
  12   7.50215550e+01  7.41348843e+01  5.22e-11 1.82e-12  1.89e-04     0s
  13   7.47335231e+01  7.42769283e+01  7.83e-11 3.64e-12  9.72e-05     0s
  14   7.43136466e+01  7.42993375e+01  6.38e-11 3.64e-12  3.05e-06     0s
  15   7.43040047e+01  7.43036696e+01  8.12e-10 2.73e-12  7.14e-08     0s
  16   7.43037144e+01  7.43037132e+01  4.78e-12 3.64e-12  2.61e-10     0s
  17   7.43037141e+01  7.43037141e+01  5.91e-10 3.64e-12  2.61e-13     0s

Barrier solved model in 17 iterations and 0.32 seconds (0.08 work units)
Optimal objective 7.43037141e+01


Root relaxation: objective 7.430371e+01, 172 iterations, 0.29 seconds (0.06 work units)

    Nodes    |    Current Node    |     Objective Bounds      |     Work
 Expl Unexpl |  Obj  Depth IntInf | Incumbent    BestBd   Gap | It/Node Time

     0     0   74.30371    0   11  138.42438   74.30371  46.3%     -    0s
H    0     0                      89.4607677   74.30371  16.9%     -    0s
     0     0   79.76026    0    9   89.46077   79.76026  10.8%     -    0s
H    0     0                      89.3069037   80.33452  10.0%     -    0s
     0     0   80.33452    0    8   89.30690   80.33452  10.0%     -    0s
     0     0   81.03386    0   10   89.30690   81.03386  9.26%     -    0s
     0     0   81.03386    0   11   89.30690   81.03386  9.26%     -    0s
     0     0   81.08241    0   12   89.30690   81.08241  9.21%     -    0s
     0     0   81.10333    0   12   89.30690   81.10333  9.19%     -    0s
     0     0   81.20088    0   12   89.30690   81.20088  9.08%     -    0s
     0     0   81.27562    0   11   89.30690   81.27562  8.99%     -    0s
     0     0   81.34437    0   10   89.30690   81.34437  8.92%     -    0s
     0     0   81.67606    0   10   89.30690   81.67606  8.54%     -    0s
H    0     0                      87.1714107   81.67606  6.30%     -    0s
     0     2   81.67606    0   10   87.17141   81.67606  6.30%     -    0s

Cutting planes:
  Gomory: 9
  MIR: 56

Explored 192 nodes (4161 simplex iterations) in 1.26 seconds (0.79 work units)
Thread count was 36 (of 36 available processors)

Solution count 4: 87.1714 89.3069 89.4608 138.424 

Optimal solution found (tolerance 1.00e-02)
Best objective 8.717141065537e+01, best bound 8.717141065537e+01, gap 0.0000%

Gurobi 9.5.0 (linux64) logging started Sat Nov  4 12:06:40 2023

Set parameter LogFile to value "/lustre1/scratch/348/vsc34888/JointResearch/05.Models/06.Benchmarking/E.Representative_days_based_on_Line_Benefits_OptModel/RTS24_ByStages_nc10/openStarNet_RTS24_ByStages_nc10.log"
Set parameter Method to value 2
Set parameter MIPFocus to value 1
Set parameter Presolve to value 2
Set parameter RINS to value 100
Set parameter MIPGap to value 0.01
Set parameter Threads to value 36
Set parameter TimeLimit to value 604800
Set parameter IterationLimit to value 760000000
No parameters matching 'relax_integrality' found
Gurobi Optimizer version 9.5.0 build v9.5.0rc5 (linux64)
Thread count: 36 physical cores, 36 logical processors, using up to 36 threads
Optimize a model with 4453 rows, 2552 columns and 10635 nonzeros
Model fingerprint: 0x8d401c97
Coefficient statistics:
  Matrix range     [3e-02, 3e+03]
  Objective range  [1e+00, 1e+00]
  Bounds range     [4e-04, 3e+00]
  RHS range        [4e-04, 3e+01]
Presolve removed 3513 rows and 1183 columns
Presolve time: 0.01s
Presolved: 940 rows, 1389 columns, 3469 nonzeros

Ordering time: 0.00s

Barrier statistics:
 AA' NZ     : 2.442e+03
 Factor NZ  : 1.028e+04 (roughly 1 MB of memory)
 Factor Ops : 1.561e+05 (less than 1 second per iteration)
 Threads    : 1

                  Objective                Residual
Iter       Primal          Dual         Primal    Dual     Compl     Time
   0   1.33569772e+06 -1.85890813e+08  4.99e+00 1.43e+03  1.65e+05     0s
   1   1.41098373e+05 -2.92644582e+07  5.02e-01 9.46e-11  1.75e+04     0s
   2   4.87211521e+04 -2.78560406e+06  1.24e-01 1.02e-10  1.55e+03     0s
   3   2.19695281e+04 -3.62011032e+05  3.44e-03 1.02e-10  1.64e+02     0s
   4   9.67953431e+03 -3.48355890e+04  1.27e-12 3.05e-11  1.87e+01     0s
   5   1.20593043e+03 -4.99607341e+03  3.95e-13 2.91e-11  2.61e+00     0s
   6   2.99749469e+02 -5.36394812e+02  2.89e-13 1.46e-11  3.52e-01     0s
   7   1.78823250e+02 -1.23025944e+02  2.78e-13 7.28e-12  1.27e-01     0s
   8   1.09167657e+02  1.91852868e+01  3.91e-13 1.46e-11  3.78e-02     0s
   9   9.21101668e+01  7.59135615e+01  3.72e-12 1.46e-11  6.81e-03     0s
  10   8.74424864e+01  8.46366681e+01  2.04e-12 1.46e-11  1.18e-03     0s
  11   8.72084717e+01  8.70750034e+01  1.59e-12 2.91e-11  5.61e-05     0s
  12   8.71714185e+01  8.71714073e+01  1.89e-12 2.91e-11  4.71e-09     0s
  13   8.71714107e+01  8.71714107e+01  6.47e-12 2.91e-11  4.71e-12     0s
  14   8.71714107e+01  8.71714107e+01  3.80e-12 1.46e-11  4.71e-15     0s

Barrier solved model in 14 iterations and 0.02 seconds (0.01 work units)
Optimal objective 8.71714107e+01

Crossover log...

     119 DPushes remaining with DInf 0.0000000e+00                 0s
       0 DPushes remaining with DInf 0.0000000e+00                 0s

      48 PPushes remaining with PInf 0.0000000e+00                 0s
       0 PPushes remaining with PInf 0.0000000e+00                 0s

  Push phase complete: Pinf 0.0000000e+00, Dinf 1.5251887e-12      0s

Iteration    Objective       Primal Inf.    Dual Inf.      Time
      53    8.7171411e+01   0.000000e+00   0.000000e+00      0s

Use crossover to convert LP symmetric solution to basic solution...
Crossover log...

       0 DPushes remaining with DInf 0.0000000e+00                 0s

      24 PPushes remaining with PInf 0.0000000e+00                 0s
       0 PPushes remaining with PInf 0.0000000e+00                 0s

  Push phase complete: Pinf 0.0000000e+00, Dinf 2.2650896e-12      0s

Iteration    Objective       Primal Inf.    Dual Inf.      Time
      81    8.7171411e+01   0.000000e+00   0.000000e+00      0s

Solved in 81 iterations and 0.03 seconds (0.02 work units)
Optimal objective  8.717141066e+01
